
%FILE DATA:	Soccer Computational Problem for MiniZinc Models	%
%AUTHOR:	Jack Wall	%
%CONTACT:  	116397063@umail.ucc.ie			%
%LAST UPDATE:	03/03/2020, 12:07:43						%
%DESCRIPTION: 	77 games played with 33 games left				%


n=11; %number of teams

%Games to play
games=[|8,2|10,2|2,10|1,6|4,7|1,2|2,1|9,7|10,8|3,2|5,11|5,10|7,1|5,9|11,7|3,10|9,4|11,4|7,5|5,7|1,3|3,5|9,8|4,10|6,8|10,7|1,5|10,5|4,9|3,4|10,9|5,8|7,8|];

%Initial points
iPoints=[18,20,28,20,10,15,16,30,17,4,26];

%POSITION CONSTRAINTS
% [|teamID, operator, position|...]
% operators index:
%  1 for =  operator
%  2 for >  operator
%  3 for >= operator
%  4 for <  operator
%  5 for <= operator
positionConstraints=[|8,3,1|4,1,2|11,4,4|3,1,4|];